NAME 
ROWS
 N  OBJ
 L  R0      
 L  R1      
 L  R2      
 E  R3      
COLUMNS
    MARKER    'MARKER'                 'INTORG'
    I0(4)     OBJ       -155
    I0(4)     R0        -409
    I0(4)     R1        -639
    I0(4)     R2        -320
    I0(4)     R3        392
    I1(4)     OBJ       -93
    I1(4)     R0        -294
    I1(4)     R1        -357
    I1(4)     R2        -139
    I1(4)     R3        308
    I2(4)     OBJ       -6
    I2(4)     R0        -498
    I2(4)     R1        -167
    I2(4)     R2        -20
    I2(4)     R3        354
    I3(4)     OBJ       -996
    I3(4)     R0        -149
    I3(4)     R1        -359
    I3(4)     R2        -71
    I3(4)     R3        16
    I4(4)     OBJ       -279
    I4(4)     R0        -361
    I4(4)     R1        -667
    I4(4)     R2        -265
    I4(4)     R3        552
    I5(4)     OBJ       -636
    I5(4)     R0        -787
    I5(4)     R1        -942
    I5(4)     R2        -88
    I5(4)     R3        652
    I6(4)     OBJ       -174
    I6(4)     R0        -363
    I6(4)     R1        -737
    I6(4)     R2        -100
    I6(4)     R3        1000
    I7(4)     OBJ       -473
    I7(4)     R0        -32
    I7(4)     R1        -937
    I7(4)     R2        -28
    I7(4)     R3        583
    I8(4)     OBJ       -565
    I8(4)     R0        -918
    I8(4)     R1        -742
    I8(4)     R2        -329
    I8(4)     R3        313
    I9(4)     OBJ       -399
    I9(4)     R0        -659
    I9(4)     R1        -331
    I9(4)     R2        -601
    I9(4)     R3        17
    I10(4)    OBJ       -855
    I10(4)    R0        -122
    I10(4)    R1        -747
    I10(4)    R2        -354
    I10(4)    R3        531
    I11(4)    OBJ       -841
    I11(4)    R0        -72
    I11(4)    R1        -150
    I11(4)    R2        -968
    I11(4)    R3        632
    I12(4)    OBJ       -720
    I12(4)    R0        -751
    I12(4)    R1        -624
    I12(4)    R2        -958
    I12(4)    R3        155
    I13(4)    OBJ       -310
    I13(4)    R0        -127
    I13(4)    R1        -245
    I13(4)    R2        -521
    I13(4)    R3        551
    I14(4)    OBJ       -776
    I14(4)    R0        -68
    I14(4)    R1        -299
    I14(4)    R2        -326
    I14(4)    R3        702
    I15(4)    OBJ       -378
    I15(4)    R0        -30
    I15(4)    R1        -985
    I15(4)    R2        -624
    I15(4)    R3        420
    I16(4)    OBJ       -271
    I16(4)    R0        -763
    I16(4)    R1        -31
    I16(4)    R2        -463
    I16(4)    R3        638
    I17(4)    OBJ       -800
    I17(4)    R0        -241
    I17(4)    R1        -661
    I17(4)    R2        -62
    I17(4)    R3        802
    I18(4)    OBJ       -595
    I18(4)    R0        -502
    I18(4)    R1        -17
    I18(4)    R2        -561
    I18(4)    R3        447
    I19(4)    OBJ       -811
    I19(4)    R0        -327
    I19(4)    R1        -949
    I19(4)    R2        -204
    I19(4)    R3        967
    I20(1)    R3        1
    MARKER    'MARKER'                 'INTEND'
RHS
    RHS1      R0        -3839
    RHS1      R1        -5864
    RHS1      R2        -5058
    RHS1      R3        5016
BOUNDS
 UP BND1      I0(4)     1
 UP BND1      I1(4)     1
 UP BND1      I2(4)     1
 UP BND1      I3(4)     1
 UP BND1      I4(4)     1
 UP BND1      I5(4)     1
 UP BND1      I6(4)     1
 UP BND1      I7(4)     1
 UP BND1      I8(4)     1
 UP BND1      I9(4)     1
 UP BND1      I10(4)    1
 UP BND1      I11(4)    1
 UP BND1      I12(4)    1
 UP BND1      I13(4)    1
 UP BND1      I14(4)    1
 UP BND1      I15(4)    1
 UP BND1      I16(4)    1
 UP BND1      I17(4)    1
 UP BND1      I18(4)    1
 UP BND1      I19(4)    1
 LI BND1      I20(1)    0
ENDATA
